p edge 200 1990
p 1 8
p 1 13
p 1 28
p 1 29
p 1 31
p 1 32
p 1 34
p 1 39
p 1 47
p 1 55
p 1 59
p 1 63
p 1 77
p 1 79
p 1 82
p 1 83
p 1 115
p 1 126
p 1 129
p 1 133
p 1 171
p 1 179
p 1 195
p 1 196
p 2 31
p 2 32
p 2 37
p 2 42
p 2 83
p 2 92
p 2 98
p 2 147
p 2 154
p 3 7
p 3 13
p 3 45
p 3 65
p 3 68
p 3 72
p 3 73
p 3 79
p 3 91
p 3 94
p 3 111
p 3 118
p 3 156
p 3 162
p 3 165
p 3 172
p 4 20
p 4 27
p 4 43
p 4 58
p 4 62
p 4 66
p 4 77
p 4 85
p 4 90
p 4 96
p 4 110
p 4 123
p 4 139
p 4 149
p 4 181
p 4 193
p 4 195
p 5 15
p 5 22
p 5 26
p 5 37
p 5 43
p 5 54
p 5 58
p 5 64
p 5 67
p 5 73
p 5 76
p 5 93
p 5 102
p 5 140
p 5 150
p 5 171
p 5 188
p 6 25
p 6 34
p 6 35
p 6 38
p 6 46
p 6 58
p 6 60
p 6 66
p 6 68
p 6 69
p 6 71
p 6 79
p 6 80
p 6 81
p 6 84
p 6 89
p 6 109
p 6 117
p 6 123
p 6 129
p 6 139
p 6 141
p 6 149
p 6 154
p 6 161
p 6 163
p 6 169
p 6 171
p 7 48
p 7 52
p 7 74
p 7 87
p 7 88
p 7 102
p 7 152
p 7 158
p 7 168
p 7 169
p 7 170
p 7 187
p 7 189
p 7 195
p 8 23
p 8 36
p 8 46
p 8 80
p 8 105
p 8 106
p 8 117
p 8 147
p 8 154
p 8 165
p 8 183
p 8 186
p 8 195
p 8 197
p 9 11
p 9 57
p 9 75
p 9 79
p 9 80
p 9 100
p 9 109
p 9 122
p 9 138
p 9 141
p 9 157
p 9 170
p 9 178
p 9 182
p 9 185
p 9 194
p 10 12
p 10 23
p 10 25
p 10 35
p 10 53
p 10 71
p 10 81
p 10 83
p 10 93
p 10 97
p 10 98
p 10 104
p 10 105
p 10 108
p 10 112
p 10 118
p 10 119
p 10 138
p 10 141
p 10 149
p 10 158
p 10 161
p 10 164
p 10 178
p 10 181
p 10 186
p 10 187
p 10 191
p 10 200
p 11 32
p 11 42
p 11 45
p 11 51
p 11 53
p 11 71
p 11 75
p 11 79
p 11 93
p 11 100
p 11 102
p 11 106
p 11 108
p 11 122
p 11 130
p 11 131
p 11 137
p 11 138
p 11 146
p 11 152
p 11 161
p 11 170
p 11 183
p 11 185
p 12 28
p 12 40
p 12 48
p 12 72
p 12 76
p 12 77
p 12 99
p 12 113
p 12 114
p 12 123
p 12 135
p 12 136
p 12 146
p 12 155
p 12 165
p 12 175
p 12 180
p 12 188
p 12 199
p 12 200
p 13 19
p 13 25
p 13 57
p 13 64
p 13 78
p 13 80
p 13 87
p 13 95
p 13 112
p 13 114
p 13 115
p 13 118
p 13 135
p 13 137
p 13 162
p 13 165
p 13 167
p 13 171
p 13 173
p 13 185
p 13 196
p 14 19
p 14 20
p 14 32
p 14 36
p 14 38
p 14 40
p 14 43
p 14 45
p 14 48
p 14 53
p 14 70
p 14 92
p 14 105
p 14 129
p 14 130
p 14 150
p 14 151
p 14 153
p 14 160
p 14 163
p 14 191
p 15 18
p 15 21
p 15 46
p 15 56
p 15 63
p 15 64
p 15 66
p 15 95
p 15 106
p 15 107
p 15 115
p 15 119
p 15 149
p 15 158
p 15 169
p 15 170
p 15 180
p 15 185
p 16 22
p 16 29
p 16 31
p 16 35
p 16 73
p 16 77
p 16 82
p 16 84
p 16 90
p 16 91
p 16 99
p 16 107
p 16 134
p 16 136
p 16 152
p 16 164
p 16 191
p 16 194
p 16 200
p 17 18
p 17 24
p 17 34
p 17 46
p 17 57
p 17 63
p 17 96
p 17 107
p 17 120
p 17 121
p 17 139
p 17 142
p 17 143
p 17 144
p 17 168
p 18 24
p 18 25
p 18 31
p 18 35
p 18 49
p 18 64
p 18 66
p 18 77
p 18 83
p 18 97
p 18 105
p 18 115
p 18 120
p 18 121
p 18 123
p 18 137
p 18 138
p 18 139
p 18 140
p 18 141
p 18 153
p 18 154
p 18 156
p 18 165
p 18 176
p 18 181
p 18 184
p 18 197
p 18 199
p 19 36
p 19 40
p 19 43
p 19 66
p 19 116
p 19 119
p 19 127
p 19 134
p 19 153
p 19 168
p 20 32
p 20 73
p 20 90
p 20 101
p 20 106
p 20 107
p 20 116
p 20 124
p 20 130
p 20 140
p 20 152
p 20 159
p 20 161
p 20 163
p 20 173
p 20 183
p 20 185
p 20 191
p 20 192
p 20 198
p 21 26
p 21 29
p 21 36
p 21 38
p 21 41
p 21 47
p 21 51
p 21 54
p 21 56
p 21 60
p 21 66
p 21 72
p 21 82
p 21 84
p 21 96
p 21 98
p 21 118
p 21 134
p 21 135
p 21 149
p 21 166
p 21 172
p 21 179
p 21 183
p 21 186
p 21 192
p 22 33
p 22 40
p 22 42
p 22 44
p 22 45
p 22 52
p 22 53
p 22 57
p 22 75
p 22 84
p 22 99
p 22 113
p 22 132
p 22 139
p 22 150
p 22 174
p 22 185
p 23 55
p 23 71
p 23 83
p 23 105
p 23 130
p 23 132
p 23 158
p 23 169
p 23 183
p 23 189
p 23 197
p 23 198
p 24 31
p 24 34
p 24 46
p 24 57
p 24 66
p 24 81
p 24 85
p 24 90
p 24 122
p 24 139
p 24 143
p 24 157
p 24 160
p 24 186
p 25 28
p 25 29
p 25 35
p 25 61
p 25 62
p 25 65
p 25 77
p 25 78
p 25 83
p 25 89
p 25 97
p 25 115
p 25 116
p 25 124
p 25 134
p 25 139
p 25 147
p 25 154
p 25 164
p 25 170
p 25 184
p 25 186
p 25 195
p 25 196
p 26 29
p 26 39
p 26 59
p 26 61
p 26 64
p 26 83
p 26 84
p 26 91
p 26 104
p 26 114
p 26 127
p 26 130
p 26 134
p 26 141
p 26 145
p 26 150
p 26 151
p 26 158
p 26 172
p 26 175
p 26 193
p 26 197
p 27 55
p 27 60
p 27 62
p 27 80
p 27 81
p 27 82
p 27 110
p 27 159
p 27 193
p 28 32
p 28 38
p 28 57
p 28 60
p 28 72
p 28 76
p 28 81
p 28 120
p 28 129
p 28 130
p 28 136
p 28 137
p 28 142
p 28 155
p 28 189
p 28 194
p 28 195
p 28 200
p 29 35
p 29 56
p 29 73
p 29 85
p 29 91
p 29 113
p 29 131
p 29 148
p 29 157
p 29 178
p 29 181
p 29 187
p 29 194
p 30 68
p 30 69
p 30 86
p 30 121
p 30 123
p 30 130
p 30 136
p 30 146
p 30 155
p 30 160
p 30 162
p 30 192
p 31 32
p 31 44
p 31 53
p 31 61
p 31 62
p 31 76
p 31 94
p 31 101
p 31 105
p 31 111
p 31 113
p 31 128
p 31 129
p 31 133
p 31 135
p 31 146
p 31 157
p 31 167
p 31 168
p 31 196
p 31 198
p 32 42
p 32 47
p 32 59
p 32 89
p 32 104
p 32 108
p 32 129
p 32 184
p 33 51
p 33 66
p 33 70
p 33 77
p 33 80
p 33 84
p 33 96
p 33 97
p 33 109
p 33 113
p 33 134
p 33 150
p 33 154
p 33 158
p 33 174
p 33 192
p 34 45
p 34 48
p 34 53
p 34 57
p 34 63
p 34 71
p 34 90
p 34 122
p 34 131
p 34 136
p 34 139
p 34 143
p 34 144
p 34 158
p 34 165
p 34 184
p 34 189
p 34 199
p 35 36
p 35 73
p 35 74
p 35 81
p 35 91
p 35 121
p 35 123
p 35 141
p 35 149
p 35 189
p 35 194
p 35 195
p 35 198
p 36 39
p 36 44
p 36 52
p 36 57
p 36 59
p 36 65
p 36 81
p 36 84
p 36 100
p 36 110
p 36 119
p 36 123
p 36 140
p 36 148
p 36 154
p 36 164
p 36 165
p 36 170
p 36 176
p 36 179
p 36 184
p 36 186
p 37 42
p 37 66
p 37 71
p 37 80
p 37 82
p 37 85
p 37 86
p 37 92
p 37 98
p 37 112
p 37 113
p 37 122
p 37 136
p 37 144
p 37 148
p 37 163
p 37 185
p 37 190
p 38 59
p 38 60
p 38 66
p 38 85
p 38 88
p 38 89
p 38 116
p 38 128
p 38 137
p 38 148
p 38 161
p 38 168
p 38 169
p 38 174
p 38 187
p 39 41
p 39 57
p 39 59
p 39 60
p 39 67
p 39 89
p 39 122
p 39 127
p 39 142
p 39 152
p 39 158
p 39 161
p 39 164
p 39 180
p 39 182
p 39 187
p 39 188
p 39 198
p 40 43
p 40 52
p 40 53
p 40 54
p 40 55
p 40 63
p 40 70
p 40 85
p 40 92
p 40 96
p 40 114
p 40 144
p 40 148
p 40 152
p 40 153
p 40 163
p 40 181
p 40 183
p 40 184
p 40 198
p 41 59
p 41 64
p 41 67
p 41 71
p 41 74
p 41 75
p 41 77
p 41 81
p 41 83
p 41 89
p 41 129
p 41 132
p 41 144
p 41 150
p 41 162
p 41 175
p 41 190
p 41 192
p 42 56
p 42 64
p 42 92
p 42 98
p 42 106
p 42 135
p 42 155
p 42 157
p 42 173
p 42 175
p 42 178
p 43 52
p 43 67
p 43 81
p 43 84
p 43 89
p 43 94
p 43 109
p 43 152
p 43 153
p 43 162
p 43 165
p 43 188
p 43 189
p 43 191
p 43 193
p 44 59
p 44 63
p 44 68
p 44 71
p 44 72
p 44 78
p 44 80
p 44 89
p 44 102
p 44 104
p 44 105
p 44 109
p 44 110
p 44 112
p 44 116
p 44 117
p 44 128
p 44 132
p 44 134
p 44 149
p 44 150
p 44 159
p 45 94
p 45 104
p 45 111
p 45 112
p 45 116
p 45 131
p 45 138
p 45 158
p 45 166
p 45 170
p 45 171
p 45 180
p 45 184
p 45 192
p 46 51
p 46 76
p 46 88
p 46 92
p 46 118
p 46 124
p 46 135
p 46 137
p 46 143
p 46 144
p 46 158
p 46 162
p 46 164
p 46 168
p 46 176
p 46 177
p 47 58
p 47 64
p 47 83
p 47 99
p 47 134
p 47 144
p 47 152
p 47 158
p 47 159
p 47 161
p 47 179
p 47 181
p 47 182
p 47 184
p 48 74
p 48 78
p 48 80
p 48 84
p 48 93
p 48 103
p 48 109
p 48 127
p 48 141
p 48 145
p 48 167
p 48 168
p 48 184
p 48 195
p 49 118
p 49 128
p 49 151
p 49 158
p 49 186
p 49 188
p 49 194
p 49 198
p 50 71
p 50 73
p 50 105
p 50 132
p 50 154
p 50 170
p 50 182
p 50 186
p 50 194
p 50 196
p 51 64
p 51 67
p 51 81
p 51 99
p 51 101
p 51 122
p 51 123
p 51 131
p 51 132
p 51 143
p 51 149
p 51 174
p 51 181
p 51 185
p 52 57
p 52 68
p 52 84
p 52 114
p 52 119
p 53 72
p 53 80
p 53 93
p 53 94
p 53 108
p 53 112
p 53 114
p 53 115
p 53 132
p 53 138
p 53 144
p 53 170
p 53 172
p 53 176
p 53 177
p 53 180
p 53 184
p 54 55
p 54 65
p 54 78
p 54 85
p 54 93
p 54 106
p 54 115
p 54 121
p 54 125
p 54 127
p 54 132
p 54 141
p 54 149
p 54 156
p 54 163
p 54 173
p 54 188
p 54 189
p 54 190
p 55 61
p 55 69
p 55 81
p 55 82
p 55 109
p 55 113
p 55 135
p 55 136
p 55 140
p 55 141
p 55 158
p 55 164
p 55 170
p 55 171
p 55 181
p 55 183
p 55 190
p 55 196
p 56 67
p 56 82
p 56 90
p 56 95
p 56 115
p 56 139
p 56 144
p 56 148
p 56 151
p 56 163
p 56 180
p 56 185
p 56 187
p 56 191
p 56 192
p 56 194
p 57 66
p 57 80
p 57 95
p 57 97
p 57 108
p 57 110
p 57 111
p 57 114
p 57 119
p 57 151
p 57 170
p 57 179
p 57 193
p 58 83
p 58 85
p 58 90
p 58 109
p 58 121
p 58 134
p 58 137
p 58 148
p 58 155
p 58 161
p 58 163
p 58 179
p 58 184
p 59 67
p 59 70
p 59 80
p 59 81
p 59 89
p 59 186
p 60 61
p 60 73
p 60 98
p 60 105
p 60 108
p 60 117
p 60 130
p 60 132
p 60 139
p 60 148
p 60 155
p 60 164
p 60 171
p 61 83
p 61 117
p 61 130
p 61 141
p 61 155
p 61 156
p 61 157
p 61 163
p 61 171
p 61 176
p 61 185
p 61 196
p 62 89
p 62 105
p 62 109
p 62 110
p 62 119
p 62 121
p 62 141
p 62 149
p 62 160
p 62 176
p 62 186
p 62 190
p 62 193
p 62 198
p 63 81
p 63 89
p 63 92
p 63 100
p 63 106
p 63 134
p 63 141
p 63 145
p 63 152
p 63 160
p 63 183
p 63 185
p 63 188
p 64 66
p 64 79
p 64 88
p 64 91
p 64 113
p 64 120
p 64 121
p 64 124
p 64 132
p 64 146
p 64 148
p 64 150
p 64 172
p 64 181
p 65 78
p 65 85
p 65 109
p 65 125
p 65 154
p 65 160
p 65 161
p 65 187
p 66 73
p 66 75
p 66 82
p 66 92
p 66 109
p 66 111
p 66 119
p 66 120
p 66 133
p 66 139
p 66 146
p 66 160
p 66 163
p 66 164
p 66 169
p 66 180
p 66 186
p 66 198
p 66 200
p 67 73
p 67 83
p 67 89
p 67 92
p 67 116
p 67 145
p 67 148
p 67 165
p 67 175
p 67 185
p 67 187
p 67 192
p 68 69
p 68 73
p 68 81
p 68 83
p 68 113
p 68 114
p 68 116
p 68 146
p 68 150
p 68 160
p 68 164
p 68 169
p 68 178
p 68 185
p 68 194
p 68 200
p 69 90
p 69 96
p 69 97
p 69 100
p 69 142
p 69 146
p 69 147
p 69 154
p 69 158
p 69 160
p 69 170
p 70 73
p 70 80
p 70 92
p 70 98
p 70 105
p 70 108
p 70 127
p 70 153
p 70 154
p 70 164
p 70 171
p 70 172
p 71 78
p 71 81
p 71 87
p 71 92
p 71 97
p 71 102
p 71 109
p 71 111
p 71 119
p 71 121
p 71 124
p 71 125
p 71 165
p 71 171
p 71 176
p 71 178
p 71 186
p 71 187
p 71 192
p 72 76
p 72 178
p 72 182
p 72 184
p 72 194
p 72 200
p 73 74
p 73 77
p 73 91
p 73 105
p 73 112
p 73 119
p 73 122
p 73 138
p 73 147
p 73 148
p 73 161
p 73 165
p 73 178
p 73 180
p 73 191
p 74 79
p 74 94
p 74 103
p 74 104
p 74 105
p 74 110
p 74 112
p 74 114
p 74 131
p 74 145
p 74 153
p 74 172
p 74 183
p 74 191
p 74 195
p 75 89
p 75 107
p 75 114
p 75 124
p 75 142
p 75 157
p 75 167
p 75 168
p 75 176
p 75 198
p 75 200
p 76 119
p 76 127
p 76 136
p 76 141
p 76 162
p 76 168
p 76 200
p 77 81
p 77 84
p 77 92
p 77 94
p 77 97
p 77 101
p 77 111
p 77 117
p 77 120
p 77 124
p 77 125
p 77 131
p 77 137
p 77 147
p 77 154
p 77 164
p 77 168
p 77 170
p 77 184
p 77 198
p 78 81
p 78 85
p 78 90
p 78 107
p 78 120
p 78 125
p 78 149
p 78 154
p 79 109
p 79 122
p 79 129
p 79 138
p 79 147
p 79 154
p 79 155
p 79 186
p 80 81
p 80 87
p 80 93
p 80 95
p 80 110
p 80 118
p 80 122
p 80 125
p 80 127
p 80 129
p 80 154
p 80 157
p 80 171
p 80 180
p 80 188
p 80 196
p 80 197
p 81 83
p 81 85
p 81 86
p 81 113
p 81 118
p 81 124
p 81 128
p 81 130
p 81 139
p 81 154
p 81 161
p 81 165
p 81 168
p 81 176
p 81 181
p 81 191
p 82 96
p 82 110
p 82 115
p 82 133
p 82 168
p 82 171
p 82 175
p 82 183
p 82 192
p 83 86
p 83 103
p 83 108
p 83 110
p 83 118
p 83 124
p 83 125
p 83 128
p 83 131
p 83 146
p 83 150
p 83 172
p 84 90
p 84 109
p 84 113
p 84 128
p 84 137
p 84 142
p 84 147
p 84 165
p 84 174
p 84 176
p 84 198
p 85 97
p 85 102
p 85 108
p 85 117
p 85 120
p 85 121
p 85 125
p 85 135
p 85 137
p 85 144
p 85 147
p 85 157
p 85 171
p 85 175
p 86 93
p 86 101
p 86 113
p 86 124
p 86 197
p 86 200
p 87 88
p 87 89
p 87 93
p 87 96
p 87 100
p 87 102
p 87 108
p 87 120
p 87 127
p 87 132
p 87 146
p 87 151
p 87 157
p 87 160
p 87 173
p 87 187
p 87 189
p 87 190
p 87 191
p 87 199
p 88 102
p 88 119
p 88 130
p 88 142
p 88 154
p 88 155
p 88 169
p 88 176
p 88 181
p 88 186
p 88 187
p 88 189
p 89 96
p 89 99
p 89 105
p 89 115
p 89 130
p 89 138
p 89 145
p 89 146
p 89 152
p 89 169
p 89 173
p 89 182
p 90 94
p 90 111
p 90 118
p 90 121
p 90 143
p 90 149
p 90 163
p 90 168
p 90 187
p 90 197
p 91 100
p 91 130
p 91 144
p 91 149
p 91 182
p 91 186
p 91 189
p 91 195
p 91 198
p 92 98
p 92 105
p 92 117
p 92 120
p 92 129
p 92 131
p 92 139
p 92 144
p 92 145
p 92 159
p 92 185
p 92 193
p 93 103
p 93 109
p 93 114
p 93 126
p 93 147
p 93 148
p 93 160
p 93 164
p 93 185
p 93 189
p 93 194
p 94 112
p 94 121
p 94 131
p 94 133
p 94 135
p 94 154
p 94 155
p 94 167
p 94 178
p 94 182
p 94 192
p 94 199
p 94 200
p 95 99
p 95 115
p 95 120
p 95 129
p 95 130
p 95 142
p 95 150
p 95 157
p 95 180
p 95 182
p 96 98
p 96 122
p 96 140
p 96 156
p 96 167
p 96 174
p 96 179
p 96 192
p 97 110
p 97 111
p 97 124
p 97 131
p 97 133
p 97 134
p 97 145
p 97 157
p 97 160
p 97 162
p 97 165
p 97 177
p 97 178
p 98 195
p 99 110
p 99 123
p 99 128
p 99 146
p 99 166
p 99 172
p 99 185
p 100 106
p 100 109
p 100 122
p 100 126
p 100 128
p 100 130
p 100 134
p 100 152
p 100 157
p 100 191
p 100 192
p 101 106
p 101 119
p 101 140
p 101 173
p 101 190
p 101 191
p 101 194
p 101 199
p 102 106
p 102 122
p 102 130
p 102 134
p 102 184
p 102 187
p 102 198
p 102 199
p 103 120
p 103 123
p 103 126
p 103 127
p 103 134
p 103 136
p 103 148
p 103 158
p 103 164
p 103 169
p 103 186
p 103 189
p 104 111
p 104 119
p 104 123
p 104 124
p 104 127
p 104 129
p 104 130
p 104 131
p 104 132
p 104 154
p 104 166
p 104 170
p 105 106
p 105 113
p 105 137
p 105 144
p 105 152
p 105 159
p 105 183
p 105 187
p 105 197
p 105 198
p 106 134
p 106 139
p 106 143
p 106 152
p 106 160
p 106 177
p 106 180
p 106 196
p 107 115
p 107 122
p 107 133
p 107 142
p 107 148
p 107 157
p 107 160
p 107 198
p 107 200
p 108 114
p 108 142
p 108 159
p 108 171
p 108 172
p 108 177
p 108 194
p 108 198
p 109 119
p 109 132
p 109 136
p 109 141
p 109 156
p 109 166
p 109 173
p 109 182
p 109 185
p 110 150
p 110 170
p 110 175
p 110 178
p 110 186
p 110 193
p 111 119
p 111 121
p 111 131
p 111 144
p 111 147
p 111 150
p 111 157
p 111 166
p 111 169
p 111 176
p 111 190
p 111 192
p 112 115
p 112 129
p 112 132
p 112 133
p 112 135
p 112 138
p 112 139
p 112 147
p 112 167
p 112 169
p 112 173
p 112 183
p 112 184
p 112 186
p 112 190
p 112 195
p 113 127
p 113 128
p 113 132
p 113 138
p 113 145
p 113 149
p 113 159
p 113 168
p 113 174
p 113 193
p 113 199
p 114 122
p 114 130
p 114 141
p 114 142
p 114 150
p 114 152
p 114 166
p 114 171
p 114 172
p 114 177
p 114 184
p 114 186
p 114 194
p 115 117
p 115 122
p 115 123
p 115 127
p 115 128
p 115 131
p 115 155
p 115 156
p 115 157
p 115 161
p 115 164
p 115 180
p 115 189
p 116 117
p 116 121
p 116 135
p 116 138
p 116 143
p 116 159
p 116 177
p 116 179
p 117 122
p 117 130
p 117 131
p 117 134
p 117 158
p 117 159
p 117 171
p 117 183
p 117 184
p 117 198
p 117 200
p 118 120
p 118 128
p 118 137
p 118 151
p 118 165
p 118 185
p 118 188
p 119 121
p 119 167
p 119 188
p 120 121
p 120 125
p 120 131
p 120 157
p 120 161
p 120 177
p 120 181
p 120 191
p 120 192
p 120 196
p 120 199
p 120 200
p 121 122
p 121 123
p 121 124
p 121 125
p 121 126
p 121 131
p 121 132
p 121 138
p 121 149
p 121 168
p 121 170
p 121 180
p 122 131
p 122 138
p 122 148
p 122 152
p 122 159
p 122 164
p 122 166
p 122 168
p 122 181
p 122 194
p 123 140
p 123 153
p 123 161
p 123 162
p 123 185
p 123 191
p 124 128
p 124 132
p 124 134
p 124 143
p 124 149
p 124 150
p 124 163
p 124 165
p 124 166
p 124 168
p 124 179
p 124 184
p 124 185
p 124 195
p 125 130
p 125 168
p 125 175
p 125 181
p 125 186
p 125 195
p 125 198
p 126 132
p 126 148
p 126 152
p 126 164
p 126 169
p 127 128
p 127 148
p 127 154
p 127 164
p 127 171
p 127 177
p 127 183
p 128 141
p 128 147
p 128 151
p 128 161
p 128 188
p 128 198
p 128 199
p 129 137
p 129 139
p 129 158
p 129 165
p 130 132
p 130 151
p 130 155
p 130 156
p 130 170
p 130 176
p 130 185
p 130 191
p 131 144
p 131 148
p 131 152
p 131 154
p 131 156
p 131 160
p 131 161
p 131 163
p 131 166
p 131 189
p 131 192
p 131 194
p 132 145
p 132 155
p 132 163
p 132 164
p 132 165
p 132 175
p 132 188
p 132 192
p 133 135
p 133 167
p 133 192
p 134 150
p 134 152
p 134 165
p 134 167
p 134 186
p 134 196
p 134 200
p 135 151
p 135 155
p 135 166
p 135 167
p 135 170
p 135 178
p 135 182
p 135 190
p 135 195
p 136 138
p 136 141
p 136 153
p 136 166
p 136 172
p 136 180
p 137 166
p 137 175
p 137 181
p 137 189
p 137 190
p 137 195
p 137 198
p 138 159
p 138 162
p 138 183
p 139 143
p 139 189
p 140 150
p 140 152
p 140 165
p 140 173
p 140 181
p 140 191
p 140 195
p 140 198
p 141 161
p 141 176
p 142 157
p 142 183
p 142 184
p 142 197
p 142 198
p 143 165
p 143 175
p 143 189
p 143 190
p 144 158
p 144 176
p 144 197
p 145 161
p 145 170
p 145 172
p 145 182
p 145 192
p 145 195
p 146 160
p 146 183
p 146 189
p 146 194
p 146 197
p 147 170
p 147 171
p 147 173
p 147 179
p 147 191
p 148 164
p 148 171
p 148 189
p 149 157
p 149 162
p 149 168
p 149 174
p 149 184
p 150 161
p 150 163
p 150 168
p 150 181
p 150 188
p 151 161
p 151 162
p 151 181
p 151 188
p 151 199
p 152 156
p 152 200
p 153 162
p 153 178
p 153 190
p 154 156
p 154 182
p 154 195
p 155 164
p 155 167
p 155 173
p 155 179
p 155 196
p 156 163
p 156 169
p 156 171
p 156 181
p 156 183
p 156 191
p 156 196
p 157 161
p 157 174
p 157 181
p 157 182
p 157 198
p 158 166
p 158 170
p 158 171
p 158 176
p 158 185
p 158 190
p 159 173
p 159 174
p 159 177
p 159 180
p 159 184
p 159 188
p 159 200
p 160 162
p 160 164
p 160 192
p 160 200
p 161 165
p 161 179
p 161 184
p 161 190
p 162 165
p 162 181
p 162 183
p 162 186
p 162 191
p 162 192
p 163 171
p 163 180
p 163 183
p 163 184
p 163 190
p 163 196
p 163 198
p 164 183
p 164 184
p 164 185
p 164 194
p 164 200
p 165 166
p 165 171
p 165 173
p 165 179
p 165 180
p 165 188
p 165 193
p 165 200
p 166 173
p 166 182
p 166 191
p 166 198
p 167 190
p 168 180
p 168 191
p 168 192
p 168 193
p 169 187
p 170 171
p 170 196
p 171 185
p 171 192
p 171 196
p 172 177
p 172 186
p 173 176
p 173 183
p 173 187
p 173 191
p 173 195
p 173 200
p 174 192
p 175 182
p 175 188
p 175 189
p 175 190
p 175 192
p 175 198
p 175 200
p 177 186
p 179 184
p 179 186
p 179 189
p 179 192
p 180 184
p 180 192
p 181 190
p 181 191
p 181 196
p 181 199
p 182 183
p 182 186
p 182 194
p 182 198
p 183 192
p 183 193
p 183 197
p 184 187
p 184 190
p 184 192
p 184 197
p 185 187
p 185 196
p 185 198
p 186 194
p 188 191
p 189 190
p 192 193
p 197 198
p 197 200